
Gurobi 9.0.3 (win64, gurobi_cl) logging started Thu Mar 17 10:05:26 2022

Using license file C:\Users\yni\gurobi.lic
Set parameter LogFile to value gurobi.log
Academic license - for non-commercial use only
